345
1 0 5 256 1 243 1 269 1 13 1 127 1
2 0 5 20 1 236 1 238 1 318 1 323 1
3 0 5 306 1 246 1 53 1 197 1 234 1
4 0 5 36 1 331 1 193 1 290 1 113 1
5 0 5 78 1 115 1 68 1 81 1 270 1
6 0 5 278 1 283 1 108 1 48 1 254 1
7 0 5 155 1 272 1 257 1 320 1 101 1
8 0 5 93 1 34 1 97 1 175 1 218 1
9 0 5 13 1 269 1 256 1 243 1 174 1
10 0 5 100 1 46 1 179 1 109 1 27 1
11 0 5 17 1 43 1 96 1 143 1 291 1
12 0 5 166 1 65 1 114 1 26 1 124 1
13 0 5 1 1 178 1 333 1 342 1 341 1
14 0 5 262 1 15 1 20 1 232 1 57 1
15 0 5 14 1 57 1 232 1 147 1 205 1
16 0 5 167 1 107 1 230 1 146 1 118 1
17 0 5 11 1 143 1 98 1 96 1 43 1
18 0 5 131 1 63 1 51 1 178 1 118 1
19 0 5 81 1 119 1 49 1 183 1 89 1
20 0 5 2 1 262 1 14 1 189 1 318 1
21 0 5 172 1 79 1 38 1 149 1 75 1
22 0 5 133 1 89 1 175 1 270 1 310 1
23 0 5 125 1 122 1 27 1 44 1 242 1
24 0 5 299 1 296 1 96 1 213 1 199 1
25 0 5 110 1 211 1 202 1 40 1 146 1
26 0 5 114 1 141 1 159 1 12 1 65 1
27 0 5 179 1 125 1 200 1 30 1 23 1
28 0 5 294 1 69 1 79 1 252 1 297 1
29 0 5 196 1 174 1 282 1 70 1 213 1
30 0 5 94 1 242 1 27 1 125 1 233 1
31 0 5 66 1 159 1 188 1 208 1 141 1
32 0 5 254 1 316 1 68 1 163 1 283 1
33 0 5 103 1 281 1 282 1 285 1 91 1
34 0 5 298 1 93 1 52 1 8 1 218 1
35 0 5 72 1 280 1 207 1 107 1 225 1
36 0 5 4 1 331 1 290 1 113 1 287 1
37 0 5 210 1 193 1 326 1 259 1 4 1
38 0 5 191 1 21 1 172 1 226 1 180 1
39 0 5 185 1 182 1 272 1 201 1 136 1
40 0 5 211 1 97 1 25 1 298 1 202 1
41 0 5 73 1 221 1 118 1 267 1 177 1
42 0 5 225 1 207 1 1 1 333 1 342 1
43 0 5 96 1 11 1 199 1 324 1 17 1
44 0 5 276 1 209 1 76 1 88 1 23 1
45 0 5 249 1 190 1 84 1 258 1 275 1
46 0 5 323 1 10 1 302 1 179 1 200 1
47 0 5 308 1 250 1 203 1 268 1 292 1
48 0 5 128 1 108 1 241 1 129 1 139 1
49 0 5 119 1 289 1 19 1 183 1 81 1
50 0 5 295 1 247 1 300 1 106 1 291 1
51 0 5 177 1 18 1 63 1 131 1 224 1
52 0 5 298 1 34 1 97 1 56 1 218 1
53 0 5 3 1 246 1 293 1 266 1 306 1
54 0 5 264 1 263 1 173 1 279 1 267 1
55 0 5 132 1 215 1 83 1 116 1 315 1
56 0 5 187 1 218 1 52 1 241 1 214 1
57 0 5 232 1 15 1 147 1 205 1 117 1
58 0 5 86 1 136 1 305 1 137 1 182 1
59 0 5 75 1 71 1 297 1 172 1 149 1
60 0 5 90 1 87 1 95 1 64 1 170 1
61 0 5 292 1 244 1 206 1 124 1 155 1
62 0 5 240 1 151 1 162 1 137 1 312 1
63 0 5 18 1 51 1 118 1 131 1 41 1
64 0 5 87 1 245 1 95 1 60 1 170 1
65 0 5 166 1 12 1 124 1 141 1 26 1
66 0 5 31 1 159 1 152 1 95 1 330 1
67 0 5 307 1 77 1 253 1 304 1 154 1
68 0 5 316 1 5 1 115 1 163 1 32 1
69 0 5 297 1 28 1 149 1 75 1 79 1
70 0 5 286 1 192 1 217 1 88 1 29 1
71 0 5 226 1 180 1 59 1 102 1 274 1
72 0 5 225 1 35 1 160 1 207 1 230 1
73 0 5 41 1 267 1 84 1 118 1 105 1
74 0 5 312 1 265 1 287 1 261 1 290 1
75 0 5 59 1 172 1 149 1 297 1 69 1
76 0 5 88 1 222 1 242 1 44 1 125 1
77 0 5 154 1 67 1 304 1 80 1 307 1
78 0 5 81 1 5 1 115 1 270 1 119 1
79 0 5 294 1 21 1 149 1 28 1 210 1
80 0 5 214 1 154 1 251 1 187 1 77 1
81 0 5 19 1 78 1 115 1 119 1 5 1
82 0 5 303 1 134 1 291 1 233 1 11 1
83 0 5 55 1 132 1 248 1 142 1 215 1
84 0 5 190 1 73 1 41 1 45 1 229 1
85 0 5 163 1 270 1 288 1 133 1 22 1
86 0 5 58 1 136 1 272 1 305 1 182 1
87 0 5 64 1 60 1 95 1 245 1 90 1
88 0 5 76 1 209 1 284 1 44 1 276 1
89 0 5 310 1 22 1 133 1 175 1 119 1
90 0 5 60 1 95 1 170 1 169 1 87 1
91 0 5 281 1 135 1 296 1 33 1 285 1
92 0 5 202 1 120 1 314 1 293 1 211 1
93 0 5 8 1 34 1 218 1 52 1 298 1
94 0 5 30 1 242 1 233 1 27 1 125 1
95 0 5 90 1 245 1 87 1 64 1 60 1
96 0 5 43 1 24 1 11 1 199 1 299 1
97 0 5 40 1 298 1 52 1 211 1 25 1
98 0 5 148 1 143 1 152 1 17 1 96 1
99 0 5 237 1 164 1 321 1 273 1 123 1
100 0 5 109 1 10 1 327 1 179 1 27 1
101 0 5 320 1 126 1 7 1 317 1 201 1
102 0 5 157 1 158 1 274 1 184 1 71 1
103 0 5 282 1 33 1 196 1 281 1 91 1
104 0 5 260 1 156 1 201 1 111 1 176 1
105 0 5 279 1 267 1 33 1 263 1 73 1
106 0 5 300 1 324 1 286 1 284 1 222 1
107 0 5 146 1 16 1 197 1 35 1 280 1
108 0 5 283 1 227 1 48 1 128 1 6 1
109 0 5 327 1 100 1 10 1 309 1 122 1
110 0 5 25 1 146 1 301 1 97 1 202 1
111 0 5 317 1 201 1 126 1 176 1 104 1
112 0 5 181 1 121 1 117 1 143 1 205 1
113 0 5 319 1 290 1 259 1 326 1 287 1
114 0 5 26 1 12 1 305 1 159 1 231 1
115 0 5 316 1 5 1 68 1 81 1 78 1
116 0 5 215 1 223 1 55 1 253 1 307 1
117 0 5 181 1 232 1 112 1 147 1 205 1
118 0 5 229 1 63 1 41 1 16 1 73 1
119 0 5 49 1 19 1 81 1 183 1 78 1
120 0 5 92 1 212 1 293 1 211 1 138 1
121 0 5 205 1 147 1 112 1 170 1 117 1
122 0 5 309 1 23 1 327 1 150 1 125 1
123 0 5 154 1 277 1 99 1 328 1 80 1
124 0 5 166 1 272 1 65 1 61 1 7 1
125 0 5 23 1 242 1 27 1 30 1 122 1
126 0 5 101 1 317 1 201 1 111 1 320 1
127 0 5 1 1 338 1 336 1 344 1 333 1
128 0 5 48 1 108 1 288 1 227 1 235 1
129 0 5 139 1 241 1 325 1 48 1 171 1
130 0 5 275 1 304 1 307 1 329 1 77 1
131 0 5 18 1 224 1 178 1 63 1 51 1
132 0 5 55 1 315 1 83 1 220 1 253 1
133 0 5 270 1 22 1 89 1 85 1 310 1
134 0 5 291 1 82 1 233 1 295 1 303 1
135 0 5 285 1 91 1 281 1 299 1 188 1
136 0 5 86 1 272 1 58 1 182 1 124 1
137 0 5 240 1 162 1 58 1 62 1 305 1
138 0 5 175 1 161 1 288 1 310 1 212 1
139 0 5 129 1 186 1 325 1 278 1 195 1
140 0 5 313 1 219 1 261 1 265 1 287 1
141 0 5 208 1 26 1 65 1 244 1 31 1
142 0 5 206 1 83 1 292 1 257 1 61 1
143 0 5 98 1 17 1 112 1 11 1 148 1
144 0 5 330 1 245 1 159 1 204 1 151 1
145 0 5 169 1 170 1 148 1 112 1 121 1
146 0 5 110 1 107 1 197 1 16 1 25 1
147 0 5 205 1 121 1 15 1 57 1 112 1
148 0 5 98 1 152 1 169 1 145 1 143 1
149 0 5 79 1 69 1 21 1 75 1 172 1
150 0 5 309 1 276 1 122 1 209 1 269 1
151 0 5 62 1 204 1 240 1 144 1 137 1
152 0 5 148 1 66 1 98 1 31 1 169 1
153 0 5 239 1 181 1 303 1 322 1 216 1
154 0 5 77 1 123 1 80 1 251 1 214 1
155 0 5 257 1 7 1 206 1 124 1 61 1
156 0 5 228 1 104 1 260 1 201 1 255 1
157 0 5 102 1 271 1 158 1 184 1 274 1
158 0 5 184 1 102 1 157 1 274 1 271 1
159 0 5 330 1 66 1 31 1 26 1 144 1
160 0 5 289 1 183 1 72 1 246 1 225 1
161 0 5 183 1 310 1 138 1 175 1 212 1
162 0 5 182 1 137 1 62 1 312 1 261 1
163 0 5 85 1 235 1 288 1 254 1 68 1
164 0 5 237 1 277 1 99 1 123 1 273 1
165 0 5 178 1 224 1 198 1 131 1 230 1
166 0 5 12 1 65 1 124 1 114 1 26 1
167 0 5 230 1 16 1 107 1 165 1 178 1
168 0 5 195 1 186 1 278 1 325 1 237 1
169 0 5 145 1 170 1 148 1 90 1 152 1
170 0 5 145 1 169 1 90 1 121 1 60 1
171 0 5 328 1 187 1 325 1 241 1 321 1
172 0 5 21 1 38 1 75 1 149 1 59 1
173 0 5 54 1 263 1 267 1 264 1 73 1
174 0 5 29 1 9 1 192 1 286 1 70 1
175 0 5 138 1 22 1 288 1 310 1 89 1
176 0 5 252 1 260 1 111 1 104 1 201 1
177 0 5 51 1 221 1 41 1 63 1 18 1
178 0 5 165 1 13 1 224 1 198 1 131 1
179 0 5 200 1 27 1 10 1 100 1 46 1
180 0 5 226 1 71 1 38 1 191 1 274 1
181 0 5 117 1 239 1 153 1 112 1 189 1
182 0 5 162 1 39 1 261 1 58 1 312 1
183 0 5 160 1 161 1 289 1 49 1 310 1
184 0 5 158 1 274 1 102 1 157 1 271 1
185 0 5 39 1 272 1 7 1 101 1 182 1
186 0 5 168 1 278 1 139 1 325 1 195 1
187 0 5 171 1 56 1 80 1 241 1 328 1
188 0 5 208 1 299 1 31 1 135 1 296 1
189 0 5 239 1 318 1 216 1 181 1 153 1
190 0 5 84 1 45 1 249 1 248 1 73 1
191 0 5 38 1 274 1 277 1 180 1 226 1
192 0 5 217 1 70 1 209 1 269 1 9 1
193 0 5 326 1 37 1 4 1 113 1 259 1
194 0 5 220 1 311 1 253 1 271 1 315 1
195 0 5 168 1 325 1 273 1 139 1 237 1
196 0 5 282 1 29 1 103 1 213 1 296 1
197 0 5 280 1 107 1 234 1 146 1 35 1
198 0 5 224 1 178 1 9 1 165 1 13 1
199 0 5 213 1 43 1 296 1 96 1 324 1
200 0 5 179 1 216 1 27 1 323 1 46 1
201 0 5 111 1 104 1 126 1 317 1 176 1
202 0 5 92 1 314 1 25 1 211 1 234 1
203 0 5 47 1 279 1 250 1 308 1 285 1
204 0 5 231 1 151 1 305 1 144 1 137 1
205 0 5 147 1 121 1 112 1 117 1 57 1
206 0 5 142 1 155 1 257 1 61 1 292 1
207 0 5 72 1 42 1 306 1 280 1 35 1
208 0 5 141 1 188 1 31 1 244 1 268 1
209 0 5 276 1 88 1 44 1 150 1 192 1
210 0 5 37 1 259 1 294 1 79 1 21 1
211 0 5 40 1 25 1 97 1 202 1 120 1
212 0 5 266 1 293 1 120 1 161 1 138 1
213 0 5 199 1 296 1 282 1 196 1 24 1
214 0 5 80 1 251 1 56 1 154 1 187 1
215 0 5 116 1 223 1 55 1 248 1 83 1
216 0 5 200 1 318 1 322 1 189 1 239 1
217 0 5 192 1 9 1 70 1 269 1 209 1
218 0 5 93 1 241 1 56 1 34 1 52 1
219 0 5 313 1 287 1 140 1 255 1 319 1
220 0 5 194 1 315 1 311 1 253 1 132 1
221 0 5 177 1 41 1 267 1 105 1 51 1
222 0 5 284 1 247 1 76 1 88 1 242 1
223 0 5 215 1 116 1 248 1 249 1 45 1
224 0 5 198 1 131 1 178 1 165 1 51 1
225 0 5 72 1 42 1 306 1 207 1 35 1
226 0 5 180 1 71 1 38 1 191 1 274 1
227 0 5 235 1 108 1 254 1 128 1 283 1
228 0 5 156 1 255 1 260 1 104 1 219 1
229 0 5 118 1 301 1 258 1 84 1 146 1
230 0 5 167 1 72 1 16 1 207 1 107 1
231 0 5 305 1 204 1 114 1 151 1 58 1
232 0 5 57 1 117 1 15 1 14 1 181 1
233 0 5 322 1 94 1 30 1 134 1 242 1
234 0 5 314 1 197 1 293 1 53 1 146 1
235 0 5 227 1 163 1 254 1 288 1 128 1
236 0 5 2 1 238 1 302 1 46 1 323 1
237 0 5 164 1 273 1 99 1 195 1 168 1
238 0 5 236 1 302 1 2 1 46 1 318 1
239 0 5 189 1 153 1 181 1 216 1 322 1
240 0 5 62 1 137 1 151 1 162 1 204 1
241 0 5 129 1 218 1 171 1 48 1 325 1
242 0 5 30 1 94 1 125 1 76 1 23 1
243 0 5 1 1 337 1 336 1 343 1 342 1
244 0 5 268 1 61 1 141 1 208 1 292 1
245 0 5 64 1 144 1 95 1 330 1 87 1
246 0 5 266 1 53 1 3 1 306 1 212 1
247 0 5 50 1 222 1 295 1 284 1 300 1
248 0 5 223 1 83 1 190 1 264 1 249 1
249 0 5 45 1 275 1 223 1 307 1 190 1
250 0 5 308 1 47 1 268 1 203 1 285 1
251 0 5 214 1 304 1 80 1 329 1 77 1
252 0 5 176 1 28 1 260 1 297 1 111 1
253 0 5 194 1 67 1 220 1 271 1 315 1
254 0 5 32 1 227 1 235 1 163 1 283 1
255 0 5 228 1 319 1 219 1 287 1 259 1
256 0 5 1 1 337 1 336 1 343 1 342 1
257 0 5 155 1 7 1 206 1 142 1 320 1
258 0 5 301 1 275 1 229 1 45 1 84 1
259 0 5 210 1 113 1 326 1 294 1 255 1
260 0 5 104 1 176 1 228 1 156 1 252 1
261 0 5 265 1 312 1 140 1 182 1 74 1
262 0 5 14 1 20 1 232 1 189 1 318 1
263 0 5 267 1 54 1 173 1 105 1 279 1
264 0 5 54 1 173 1 248 1 263 1 83 1
265 0 5 261 1 74 1 312 1 140 1 313 1
266 0 5 246 1 212 1 293 1 53 1 161 1
267 0 5 73 1 263 1 41 1 221 1 173 1
268 0 5 250 1 244 1 285 1 308 1 47 1
269 0 5 1 1 9 1 336 1 343 1 342 1
270 0 5 133 1 85 1 22 1 288 1 78 1
271 0 5 311 1 157 1 194 1 158 1 253 1
272 0 5 136 1 124 1 7 1 185 1 86 1
273 0 5 237 1 321 1 99 1 195 1 328 1
274 0 5 184 1 191 1 102 1 158 1 180 1
275 0 5 130 1 258 1 249 1 307 1 45 1
276 0 5 209 1 44 1 150 1 88 1 192 1
277 0 5 164 1 123 1 191 1 99 1 274 1
278 0 5 6 1 186 1 168 1 139 1 48 1
279 0 5 203 1 105 1 263 1 54 1 292 1
280 0 5 197 1 35 1 207 1 107 1 146 1
281 0 5 91 1 33 1 135 1 103 1 285 1
282 0 5 196 1 103 1 213 1 29 1 296 1
283 0 5 6 1 108 1 227 1 254 1 278 1
284 0 5 222 1 88 1 286 1 247 1 44 1
285 0 5 135 1 268 1 203 1 281 1 33 1
286 0 5 70 1 324 1 284 1 106 1 213 1
287 0 5 319 1 290 1 219 1 74 1 255 1
288 0 5 85 1 175 1 235 1 163 1 128 1
289 0 5 160 1 49 1 183 1 119 1 246 1
290 0 5 331 1 287 1 113 1 319 1 36 1
291 0 5 134 1 295 1 82 1 300 1 50 1
292 0 5 61 1 142 1 244 1 308 1 206 1
293 0 5 212 1 266 1 120 1 53 1 234 1
294 0 5 28 1 79 1 210 1 259 1 252 1
295 0 5 50 1 291 1 300 1 247 1 134 1
296 0 5 24 1 213 1 91 1 199 1 299 1
297 0 5 69 1 28 1 75 1 252 1 149 1
298 0 5 34 1 52 1 97 1 40 1 93 1
299 0 5 24 1 188 1 135 1 296 1 96 1
300 0 5 106 1 50 1 295 1 247 1 291 1
301 0 5 258 1 229 1 110 1 146 1 118 1
302 0 5 238 1 46 1 323 1 236 1 318 1
303 0 5 82 1 153 1 322 1 233 1 134 1
304 0 5 329 1 130 1 251 1 307 1 77 1
305 0 5 231 1 58 1 204 1 114 1 137 1
306 0 5 3 1 225 1 207 1 246 1 53 1
307 0 5 67 1 130 1 304 1 275 1 77 1
308 0 5 250 1 47 1 203 1 268 1 292 1
309 0 5 122 1 327 1 150 1 109 1 276 1
310 0 5 89 1 161 1 183 1 175 1 22 1
311 0 5 271 1 194 1 220 1 315 1 253 1
312 0 5 74 1 265 1 261 1 162 1 182 1
313 0 5 140 1 219 1 287 1 261 1 319 1
314 0 5 234 1 202 1 92 1 293 1 146 1
315 0 5 220 1 132 1 194 1 55 1 253 1
316 0 5 115 1 32 1 68 1 81 1 5 1
317 0 5 111 1 126 1 201 1 176 1 101 1
318 0 5 323 1 189 1 216 1 302 1 46 1
319 0 5 287 1 113 1 255 1 290 1 219 1
320 0 5 101 1 7 1 126 1 257 1 155 1
321 0 5 328 1 273 1 99 1 171 1 195 1
322 0 5 233 1 216 1 153 1 303 1 239 1
323 0 5 318 1 46 1 302 1 200 1 179 1
324 0 5 286 1 106 1 284 1 43 1 199 1
325 0 5 195 1 171 1 139 1 129 1 241 1
326 0 5 193 1 37 1 113 1 259 1 4 1
327 0 5 109 1 309 1 100 1 122 1 10 1
328 0 5 321 1 171 1 187 1 123 1 99 1
329 0 5 304 1 130 1 251 1 52 1 275 1
330 0 5 144 1 159 1 66 1 245 1 95 1
331 0 5 36 1 290 1 4 1 113 1 287 1
332 0 5 345 1 335 1 343 1 342 1 341 1
333 0 5 343 1 342 1 341 1 340 1 339 1
334 0 5 343 1 342 1 341 1 340 1 339 1
335 0 5 343 1 342 1 341 1 340 1 339 1
336 0 5 343 1 342 1 341 1 340 1 339 1
337 0 5 343 1 342 1 341 1 340 1 339 1
338 0 5 343 1 342 1 341 1 340 1 339 1
339 0 5 343 1 342 1 341 1 340 1 339 1
340 0 5 343 1 342 1 341 1 340 1 339 1
341 0 5 343 1 342 1 341 1 340 1 339 1
342 0 5 343 1 342 1 341 1 340 1 339 1
343 0 5 343 1 342 1 341 1 340 1 339 1
344 0 5 343 1 342 1 341 1 340 1 339 1
345 0 5 343 1 342 1 341 1 340 1 339 1
-1
EOF
